JulietBench/Juliet_Based_Patch_Bench/linux/CWE-189-Numeric-Errors/CVE_2011_2209_21c5977a836e399fc710ff2c5367845ed5c2527f/solverSYSCALL_DEFINE3_Snippet_patch2.smt2
; benchmark generated from python API
(set-info :status unknown)
(declare-fun rdi () (_ BitVec 64))
(declare-fun R () (_ BitVec 32))
(declare-fun rsi () (_ BitVec 64))
(assert
 (let ((?x69 ((_ extract 31 0) rdi)))
 (let (($x70 (= R ?x69)))
 (let (($x15 (bvsle rdi rsi)))
 (let (($x71 (and $x15 $x70)))
 (let ((?x60 ((_ extract 31 0) rsi)))
 (let (($x67 (= R ?x60)))
 (let (($x38 (bvsgt rdi rsi)))
 (let (($x68 (and $x38 $x67)))
 (let (($x72 (or $x68 $x71)))
 (let (($x73 (not $x72)))
 (let (($x74 (or $x68 $x71 $x73)))
 (not $x74)))))))))))))
(check-sat)
